&CONTROL
  calculation = 'nscf'
  restart_mode       = 'from_scratch',
  wf_collect         = .false.,
  prefix = 'tio'
  tstress = .true.
  tprnfor            = .true., 
  pseudo_dir         = '../pseudo/',
  outdir             = '../tmp/',
  verbosity = 'high'
/
&SYSTEM
  ibrav  =  0,
  nat = 6,
  ntyp = 2,
  ecutwfc =   5.0000000000d+01,
  ecutrho =   4.0000000000d+02,
  nbnd               =  80,
  occupations        = 'smearing',
  degauss =   2.2049585400d-02,
  smearing           = 'm-p',
  nosym              = .true.,
/
&ELECTRONS
  conv_thr =   1.2000000000d-09,
  mixing_beta =   4.0000000000d-01,
  mixing_mode        = 'local-TF',
  startingpot        = 'file',
/

ATOMIC_SPECIES
O      15.9994 O.pbesol-n-kjpaw_psl.0.1.UPF
Ti     47.867 ti_pbesol_v1.4.uspp.F.UPF


CELL_PARAMETERS angstrom
     -0.0000000000      -0.0000000000       2.9692030000
      4.6532720000      -0.0000000000       0.0000000000
      0.0000000000       4.6532720000       0.0000000000
     
ATOMIC_POSITIONS crystal
Ti           0.5000000000       0.5000000000       0.5000000000 
Ti           0.0000000000       0.0000000000       0.0000000000 
O            0.5000000000       0.1954200000       0.8045800000 
O            0.5000000000       0.8045800000       0.1954200000 
O            0.0000000000       0.3045800000       0.3045800000 
O            0.0000000000       0.6954200000       0.6954200000 

K_POINTS crystal
343
  0.00000000  0.00000000  0.00000000  2.915452e-03
  0.00000000  0.00000000  0.14285714  2.915452e-03
  0.00000000  0.00000000  0.28571429  2.915452e-03
  0.00000000  0.00000000  0.42857143  2.915452e-03
  0.00000000  0.00000000  0.57142857  2.915452e-03
  0.00000000  0.00000000  0.71428571  2.915452e-03
  0.00000000  0.00000000  0.85714286  2.915452e-03
  0.00000000  0.14285714  0.00000000  2.915452e-03
  0.00000000  0.14285714  0.14285714  2.915452e-03
  0.00000000  0.14285714  0.28571429  2.915452e-03
  0.00000000  0.14285714  0.42857143  2.915452e-03
  0.00000000  0.14285714  0.57142857  2.915452e-03
  0.00000000  0.14285714  0.71428571  2.915452e-03
  0.00000000  0.14285714  0.85714286  2.915452e-03
  0.00000000  0.28571429  0.00000000  2.915452e-03
  0.00000000  0.28571429  0.14285714  2.915452e-03
  0.00000000  0.28571429  0.28571429  2.915452e-03
  0.00000000  0.28571429  0.42857143  2.915452e-03
  0.00000000  0.28571429  0.57142857  2.915452e-03
  0.00000000  0.28571429  0.71428571  2.915452e-03
  0.00000000  0.28571429  0.85714286  2.915452e-03
  0.00000000  0.42857143  0.00000000  2.915452e-03
  0.00000000  0.42857143  0.14285714  2.915452e-03
  0.00000000  0.42857143  0.28571429  2.915452e-03
  0.00000000  0.42857143  0.42857143  2.915452e-03
  0.00000000  0.42857143  0.57142857  2.915452e-03
  0.00000000  0.42857143  0.71428571  2.915452e-03
  0.00000000  0.42857143  0.85714286  2.915452e-03
  0.00000000  0.57142857  0.00000000  2.915452e-03
  0.00000000  0.57142857  0.14285714  2.915452e-03
  0.00000000  0.57142857  0.28571429  2.915452e-03
  0.00000000  0.57142857  0.42857143  2.915452e-03
  0.00000000  0.57142857  0.57142857  2.915452e-03
  0.00000000  0.57142857  0.71428571  2.915452e-03
  0.00000000  0.57142857  0.85714286  2.915452e-03
  0.00000000  0.71428571  0.00000000  2.915452e-03
  0.00000000  0.71428571  0.14285714  2.915452e-03
  0.00000000  0.71428571  0.28571429  2.915452e-03
  0.00000000  0.71428571  0.42857143  2.915452e-03
  0.00000000  0.71428571  0.57142857  2.915452e-03
  0.00000000  0.71428571  0.71428571  2.915452e-03
  0.00000000  0.71428571  0.85714286  2.915452e-03
  0.00000000  0.85714286  0.00000000  2.915452e-03
  0.00000000  0.85714286  0.14285714  2.915452e-03
  0.00000000  0.85714286  0.28571429  2.915452e-03
  0.00000000  0.85714286  0.42857143  2.915452e-03
  0.00000000  0.85714286  0.57142857  2.915452e-03
  0.00000000  0.85714286  0.71428571  2.915452e-03
  0.00000000  0.85714286  0.85714286  2.915452e-03
  0.14285714  0.00000000  0.00000000  2.915452e-03
  0.14285714  0.00000000  0.14285714  2.915452e-03
  0.14285714  0.00000000  0.28571429  2.915452e-03
  0.14285714  0.00000000  0.42857143  2.915452e-03
  0.14285714  0.00000000  0.57142857  2.915452e-03
  0.14285714  0.00000000  0.71428571  2.915452e-03
  0.14285714  0.00000000  0.85714286  2.915452e-03
  0.14285714  0.14285714  0.00000000  2.915452e-03
  0.14285714  0.14285714  0.14285714  2.915452e-03
  0.14285714  0.14285714  0.28571429  2.915452e-03
  0.14285714  0.14285714  0.42857143  2.915452e-03
  0.14285714  0.14285714  0.57142857  2.915452e-03
  0.14285714  0.14285714  0.71428571  2.915452e-03
  0.14285714  0.14285714  0.85714286  2.915452e-03
  0.14285714  0.28571429  0.00000000  2.915452e-03
  0.14285714  0.28571429  0.14285714  2.915452e-03
  0.14285714  0.28571429  0.28571429  2.915452e-03
  0.14285714  0.28571429  0.42857143  2.915452e-03
  0.14285714  0.28571429  0.57142857  2.915452e-03
  0.14285714  0.28571429  0.71428571  2.915452e-03
  0.14285714  0.28571429  0.85714286  2.915452e-03
  0.14285714  0.42857143  0.00000000  2.915452e-03
  0.14285714  0.42857143  0.14285714  2.915452e-03
  0.14285714  0.42857143  0.28571429  2.915452e-03
  0.14285714  0.42857143  0.42857143  2.915452e-03
  0.14285714  0.42857143  0.57142857  2.915452e-03
  0.14285714  0.42857143  0.71428571  2.915452e-03
  0.14285714  0.42857143  0.85714286  2.915452e-03
  0.14285714  0.57142857  0.00000000  2.915452e-03
  0.14285714  0.57142857  0.14285714  2.915452e-03
  0.14285714  0.57142857  0.28571429  2.915452e-03
  0.14285714  0.57142857  0.42857143  2.915452e-03
  0.14285714  0.57142857  0.57142857  2.915452e-03
  0.14285714  0.57142857  0.71428571  2.915452e-03
  0.14285714  0.57142857  0.85714286  2.915452e-03
  0.14285714  0.71428571  0.00000000  2.915452e-03
  0.14285714  0.71428571  0.14285714  2.915452e-03
  0.14285714  0.71428571  0.28571429  2.915452e-03
  0.14285714  0.71428571  0.42857143  2.915452e-03
  0.14285714  0.71428571  0.57142857  2.915452e-03
  0.14285714  0.71428571  0.71428571  2.915452e-03
  0.14285714  0.71428571  0.85714286  2.915452e-03
  0.14285714  0.85714286  0.00000000  2.915452e-03
  0.14285714  0.85714286  0.14285714  2.915452e-03
  0.14285714  0.85714286  0.28571429  2.915452e-03
  0.14285714  0.85714286  0.42857143  2.915452e-03
  0.14285714  0.85714286  0.57142857  2.915452e-03
  0.14285714  0.85714286  0.71428571  2.915452e-03
  0.14285714  0.85714286  0.85714286  2.915452e-03
  0.28571429  0.00000000  0.00000000  2.915452e-03
  0.28571429  0.00000000  0.14285714  2.915452e-03
  0.28571429  0.00000000  0.28571429  2.915452e-03
  0.28571429  0.00000000  0.42857143  2.915452e-03
  0.28571429  0.00000000  0.57142857  2.915452e-03
  0.28571429  0.00000000  0.71428571  2.915452e-03
  0.28571429  0.00000000  0.85714286  2.915452e-03
  0.28571429  0.14285714  0.00000000  2.915452e-03
  0.28571429  0.14285714  0.14285714  2.915452e-03
  0.28571429  0.14285714  0.28571429  2.915452e-03
  0.28571429  0.14285714  0.42857143  2.915452e-03
  0.28571429  0.14285714  0.57142857  2.915452e-03
  0.28571429  0.14285714  0.71428571  2.915452e-03
  0.28571429  0.14285714  0.85714286  2.915452e-03
  0.28571429  0.28571429  0.00000000  2.915452e-03
  0.28571429  0.28571429  0.14285714  2.915452e-03
  0.28571429  0.28571429  0.28571429  2.915452e-03
  0.28571429  0.28571429  0.42857143  2.915452e-03
  0.28571429  0.28571429  0.57142857  2.915452e-03
  0.28571429  0.28571429  0.71428571  2.915452e-03
  0.28571429  0.28571429  0.85714286  2.915452e-03
  0.28571429  0.42857143  0.00000000  2.915452e-03
  0.28571429  0.42857143  0.14285714  2.915452e-03
  0.28571429  0.42857143  0.28571429  2.915452e-03
  0.28571429  0.42857143  0.42857143  2.915452e-03
  0.28571429  0.42857143  0.57142857  2.915452e-03
  0.28571429  0.42857143  0.71428571  2.915452e-03
  0.28571429  0.42857143  0.85714286  2.915452e-03
  0.28571429  0.57142857  0.00000000  2.915452e-03
  0.28571429  0.57142857  0.14285714  2.915452e-03
  0.28571429  0.57142857  0.28571429  2.915452e-03
  0.28571429  0.57142857  0.42857143  2.915452e-03
  0.28571429  0.57142857  0.57142857  2.915452e-03
  0.28571429  0.57142857  0.71428571  2.915452e-03
  0.28571429  0.57142857  0.85714286  2.915452e-03
  0.28571429  0.71428571  0.00000000  2.915452e-03
  0.28571429  0.71428571  0.14285714  2.915452e-03
  0.28571429  0.71428571  0.28571429  2.915452e-03
  0.28571429  0.71428571  0.42857143  2.915452e-03
  0.28571429  0.71428571  0.57142857  2.915452e-03
  0.28571429  0.71428571  0.71428571  2.915452e-03
  0.28571429  0.71428571  0.85714286  2.915452e-03
  0.28571429  0.85714286  0.00000000  2.915452e-03
  0.28571429  0.85714286  0.14285714  2.915452e-03
  0.28571429  0.85714286  0.28571429  2.915452e-03
  0.28571429  0.85714286  0.42857143  2.915452e-03
  0.28571429  0.85714286  0.57142857  2.915452e-03
  0.28571429  0.85714286  0.71428571  2.915452e-03
  0.28571429  0.85714286  0.85714286  2.915452e-03
  0.42857143  0.00000000  0.00000000  2.915452e-03
  0.42857143  0.00000000  0.14285714  2.915452e-03
  0.42857143  0.00000000  0.28571429  2.915452e-03
  0.42857143  0.00000000  0.42857143  2.915452e-03
  0.42857143  0.00000000  0.57142857  2.915452e-03
  0.42857143  0.00000000  0.71428571  2.915452e-03
  0.42857143  0.00000000  0.85714286  2.915452e-03
  0.42857143  0.14285714  0.00000000  2.915452e-03
  0.42857143  0.14285714  0.14285714  2.915452e-03
  0.42857143  0.14285714  0.28571429  2.915452e-03
  0.42857143  0.14285714  0.42857143  2.915452e-03
  0.42857143  0.14285714  0.57142857  2.915452e-03
  0.42857143  0.14285714  0.71428571  2.915452e-03
  0.42857143  0.14285714  0.85714286  2.915452e-03
  0.42857143  0.28571429  0.00000000  2.915452e-03
  0.42857143  0.28571429  0.14285714  2.915452e-03
  0.42857143  0.28571429  0.28571429  2.915452e-03
  0.42857143  0.28571429  0.42857143  2.915452e-03
  0.42857143  0.28571429  0.57142857  2.915452e-03
  0.42857143  0.28571429  0.71428571  2.915452e-03
  0.42857143  0.28571429  0.85714286  2.915452e-03
  0.42857143  0.42857143  0.00000000  2.915452e-03
  0.42857143  0.42857143  0.14285714  2.915452e-03
  0.42857143  0.42857143  0.28571429  2.915452e-03
  0.42857143  0.42857143  0.42857143  2.915452e-03
  0.42857143  0.42857143  0.57142857  2.915452e-03
  0.42857143  0.42857143  0.71428571  2.915452e-03
  0.42857143  0.42857143  0.85714286  2.915452e-03
  0.42857143  0.57142857  0.00000000  2.915452e-03
  0.42857143  0.57142857  0.14285714  2.915452e-03
  0.42857143  0.57142857  0.28571429  2.915452e-03
  0.42857143  0.57142857  0.42857143  2.915452e-03
  0.42857143  0.57142857  0.57142857  2.915452e-03
  0.42857143  0.57142857  0.71428571  2.915452e-03
  0.42857143  0.57142857  0.85714286  2.915452e-03
  0.42857143  0.71428571  0.00000000  2.915452e-03
  0.42857143  0.71428571  0.14285714  2.915452e-03
  0.42857143  0.71428571  0.28571429  2.915452e-03
  0.42857143  0.71428571  0.42857143  2.915452e-03
  0.42857143  0.71428571  0.57142857  2.915452e-03
  0.42857143  0.71428571  0.71428571  2.915452e-03
  0.42857143  0.71428571  0.85714286  2.915452e-03
  0.42857143  0.85714286  0.00000000  2.915452e-03
  0.42857143  0.85714286  0.14285714  2.915452e-03
  0.42857143  0.85714286  0.28571429  2.915452e-03
  0.42857143  0.85714286  0.42857143  2.915452e-03
  0.42857143  0.85714286  0.57142857  2.915452e-03
  0.42857143  0.85714286  0.71428571  2.915452e-03
  0.42857143  0.85714286  0.85714286  2.915452e-03
  0.57142857  0.00000000  0.00000000  2.915452e-03
  0.57142857  0.00000000  0.14285714  2.915452e-03
  0.57142857  0.00000000  0.28571429  2.915452e-03
  0.57142857  0.00000000  0.42857143  2.915452e-03
  0.57142857  0.00000000  0.57142857  2.915452e-03
  0.57142857  0.00000000  0.71428571  2.915452e-03
  0.57142857  0.00000000  0.85714286  2.915452e-03
  0.57142857  0.14285714  0.00000000  2.915452e-03
  0.57142857  0.14285714  0.14285714  2.915452e-03
  0.57142857  0.14285714  0.28571429  2.915452e-03
  0.57142857  0.14285714  0.42857143  2.915452e-03
  0.57142857  0.14285714  0.57142857  2.915452e-03
  0.57142857  0.14285714  0.71428571  2.915452e-03
  0.57142857  0.14285714  0.85714286  2.915452e-03
  0.57142857  0.28571429  0.00000000  2.915452e-03
  0.57142857  0.28571429  0.14285714  2.915452e-03
  0.57142857  0.28571429  0.28571429  2.915452e-03
  0.57142857  0.28571429  0.42857143  2.915452e-03
  0.57142857  0.28571429  0.57142857  2.915452e-03
  0.57142857  0.28571429  0.71428571  2.915452e-03
  0.57142857  0.28571429  0.85714286  2.915452e-03
  0.57142857  0.42857143  0.00000000  2.915452e-03
  0.57142857  0.42857143  0.14285714  2.915452e-03
  0.57142857  0.42857143  0.28571429  2.915452e-03
  0.57142857  0.42857143  0.42857143  2.915452e-03
  0.57142857  0.42857143  0.57142857  2.915452e-03
  0.57142857  0.42857143  0.71428571  2.915452e-03
  0.57142857  0.42857143  0.85714286  2.915452e-03
  0.57142857  0.57142857  0.00000000  2.915452e-03
  0.57142857  0.57142857  0.14285714  2.915452e-03
  0.57142857  0.57142857  0.28571429  2.915452e-03
  0.57142857  0.57142857  0.42857143  2.915452e-03
  0.57142857  0.57142857  0.57142857  2.915452e-03
  0.57142857  0.57142857  0.71428571  2.915452e-03
  0.57142857  0.57142857  0.85714286  2.915452e-03
  0.57142857  0.71428571  0.00000000  2.915452e-03
  0.57142857  0.71428571  0.14285714  2.915452e-03
  0.57142857  0.71428571  0.28571429  2.915452e-03
  0.57142857  0.71428571  0.42857143  2.915452e-03
  0.57142857  0.71428571  0.57142857  2.915452e-03
  0.57142857  0.71428571  0.71428571  2.915452e-03
  0.57142857  0.71428571  0.85714286  2.915452e-03
  0.57142857  0.85714286  0.00000000  2.915452e-03
  0.57142857  0.85714286  0.14285714  2.915452e-03
  0.57142857  0.85714286  0.28571429  2.915452e-03
  0.57142857  0.85714286  0.42857143  2.915452e-03
  0.57142857  0.85714286  0.57142857  2.915452e-03
  0.57142857  0.85714286  0.71428571  2.915452e-03
  0.57142857  0.85714286  0.85714286  2.915452e-03
  0.71428571  0.00000000  0.00000000  2.915452e-03
  0.71428571  0.00000000  0.14285714  2.915452e-03
  0.71428571  0.00000000  0.28571429  2.915452e-03
  0.71428571  0.00000000  0.42857143  2.915452e-03
  0.71428571  0.00000000  0.57142857  2.915452e-03
  0.71428571  0.00000000  0.71428571  2.915452e-03
  0.71428571  0.00000000  0.85714286  2.915452e-03
  0.71428571  0.14285714  0.00000000  2.915452e-03
  0.71428571  0.14285714  0.14285714  2.915452e-03
  0.71428571  0.14285714  0.28571429  2.915452e-03
  0.71428571  0.14285714  0.42857143  2.915452e-03
  0.71428571  0.14285714  0.57142857  2.915452e-03
  0.71428571  0.14285714  0.71428571  2.915452e-03
  0.71428571  0.14285714  0.85714286  2.915452e-03
  0.71428571  0.28571429  0.00000000  2.915452e-03
  0.71428571  0.28571429  0.14285714  2.915452e-03
  0.71428571  0.28571429  0.28571429  2.915452e-03
  0.71428571  0.28571429  0.42857143  2.915452e-03
  0.71428571  0.28571429  0.57142857  2.915452e-03
  0.71428571  0.28571429  0.71428571  2.915452e-03
  0.71428571  0.28571429  0.85714286  2.915452e-03
  0.71428571  0.42857143  0.00000000  2.915452e-03
  0.71428571  0.42857143  0.14285714  2.915452e-03
  0.71428571  0.42857143  0.28571429  2.915452e-03
  0.71428571  0.42857143  0.42857143  2.915452e-03
  0.71428571  0.42857143  0.57142857  2.915452e-03
  0.71428571  0.42857143  0.71428571  2.915452e-03
  0.71428571  0.42857143  0.85714286  2.915452e-03
  0.71428571  0.57142857  0.00000000  2.915452e-03
  0.71428571  0.57142857  0.14285714  2.915452e-03
  0.71428571  0.57142857  0.28571429  2.915452e-03
  0.71428571  0.57142857  0.42857143  2.915452e-03
  0.71428571  0.57142857  0.57142857  2.915452e-03
  0.71428571  0.57142857  0.71428571  2.915452e-03
  0.71428571  0.57142857  0.85714286  2.915452e-03
  0.71428571  0.71428571  0.00000000  2.915452e-03
  0.71428571  0.71428571  0.14285714  2.915452e-03
  0.71428571  0.71428571  0.28571429  2.915452e-03
  0.71428571  0.71428571  0.42857143  2.915452e-03
  0.71428571  0.71428571  0.57142857  2.915452e-03
  0.71428571  0.71428571  0.71428571  2.915452e-03
  0.71428571  0.71428571  0.85714286  2.915452e-03
  0.71428571  0.85714286  0.00000000  2.915452e-03
  0.71428571  0.85714286  0.14285714  2.915452e-03
  0.71428571  0.85714286  0.28571429  2.915452e-03
  0.71428571  0.85714286  0.42857143  2.915452e-03
  0.71428571  0.85714286  0.57142857  2.915452e-03
  0.71428571  0.85714286  0.71428571  2.915452e-03
  0.71428571  0.85714286  0.85714286  2.915452e-03
  0.85714286  0.00000000  0.00000000  2.915452e-03
  0.85714286  0.00000000  0.14285714  2.915452e-03
  0.85714286  0.00000000  0.28571429  2.915452e-03
  0.85714286  0.00000000  0.42857143  2.915452e-03
  0.85714286  0.00000000  0.57142857  2.915452e-03
  0.85714286  0.00000000  0.71428571  2.915452e-03
  0.85714286  0.00000000  0.85714286  2.915452e-03
  0.85714286  0.14285714  0.00000000  2.915452e-03
  0.85714286  0.14285714  0.14285714  2.915452e-03
  0.85714286  0.14285714  0.28571429  2.915452e-03
  0.85714286  0.14285714  0.42857143  2.915452e-03
  0.85714286  0.14285714  0.57142857  2.915452e-03
  0.85714286  0.14285714  0.71428571  2.915452e-03
  0.85714286  0.14285714  0.85714286  2.915452e-03
  0.85714286  0.28571429  0.00000000  2.915452e-03
  0.85714286  0.28571429  0.14285714  2.915452e-03
  0.85714286  0.28571429  0.28571429  2.915452e-03
  0.85714286  0.28571429  0.42857143  2.915452e-03
  0.85714286  0.28571429  0.57142857  2.915452e-03
  0.85714286  0.28571429  0.71428571  2.915452e-03
  0.85714286  0.28571429  0.85714286  2.915452e-03
  0.85714286  0.42857143  0.00000000  2.915452e-03
  0.85714286  0.42857143  0.14285714  2.915452e-03
  0.85714286  0.42857143  0.28571429  2.915452e-03
  0.85714286  0.42857143  0.42857143  2.915452e-03
  0.85714286  0.42857143  0.57142857  2.915452e-03
  0.85714286  0.42857143  0.71428571  2.915452e-03
  0.85714286  0.42857143  0.85714286  2.915452e-03
  0.85714286  0.57142857  0.00000000  2.915452e-03
  0.85714286  0.57142857  0.14285714  2.915452e-03
  0.85714286  0.57142857  0.28571429  2.915452e-03
  0.85714286  0.57142857  0.42857143  2.915452e-03
  0.85714286  0.57142857  0.57142857  2.915452e-03
  0.85714286  0.57142857  0.71428571  2.915452e-03
  0.85714286  0.57142857  0.85714286  2.915452e-03
  0.85714286  0.71428571  0.00000000  2.915452e-03
  0.85714286  0.71428571  0.14285714  2.915452e-03
  0.85714286  0.71428571  0.28571429  2.915452e-03
  0.85714286  0.71428571  0.42857143  2.915452e-03
  0.85714286  0.71428571  0.57142857  2.915452e-03
  0.85714286  0.71428571  0.71428571  2.915452e-03
  0.85714286  0.71428571  0.85714286  2.915452e-03
  0.85714286  0.85714286  0.00000000  2.915452e-03
  0.85714286  0.85714286  0.14285714  2.915452e-03
  0.85714286  0.85714286  0.28571429  2.915452e-03
  0.85714286  0.85714286  0.42857143  2.915452e-03
  0.85714286  0.85714286  0.57142857  2.915452e-03
  0.85714286  0.85714286  0.71428571  2.915452e-03
  0.85714286  0.85714286  0.85714286  2.915452e-03
