begin unit_cell_cart
ang
     -0.0000000000      -0.0000000000       2.9692030000
      4.6532720000      -0.0000000000       0.0000000000
      0.0000000000       4.6532720000       0.0000000000
end unit_cell_cart

begin atoms_cart
ang
Ti           0.5000000000       0.5000000000       0.5000000000 
Ti           0.0000000000       0.0000000000       0.0000000000 
O            0.5000000000       0.1954200000       0.8045800000 
O            0.5000000000       0.8045800000       0.1954200000 
O            0.0000000000       0.3045800000       0.3045800000 
O            0.0000000000       0.6954200000       0.6954200000 
end atoms_cart

! system
num_wann = 22
num_bands = 80
mp_grid 7 7 7 

! job control
iprint = 2

! plotting
wannier_plot = false
wannier_plot_supercell = 3
bands_plot = true
bands_num_points = 100
bands_plot_format = gnuplot
write_hr = true
write_u_matrices = true

! disentanglement
dis_win_min = 0
dis_win_max = 20
dis_num_iter = 1000
dis_conv_tol = 1.0E-12

! wannierisation
num_iter = 1000
conv_window = 5
conv_tol = 1e-12

! pp tools
kpath = false
kpath_task = bands
kpath_bands_colour = spin
kpath_num_points=500
begin kpoint_path
G      0.00000      0.00000      0.00000     X      0.50000      0.00000      0.00000
X      0.50000      0.00000      0.00000     M      0.50000     -0.50000      0.00000
M      0.50000     -0.50000      0.00000     G      0.00000      0.00000      0.00000
G      0.00000      0.00000      0.00000     Z      0.00000      0.00000      0.50000
Z      0.00000      0.00000      0.50000     R      0.50000      0.00000      0.50000
R      0.50000      0.00000      0.50000     A      0.50000     -0.50000      0.50000
A      0.50000     -0.50000      0.50000     Z      0.00000      0.00000      0.50000
end kpoint_path

kslice = false
kslice_task = fermi_lines
fermi_energy = 9.446
kslice_2dkmesh = 200 200
kslice_corner =  0.00  0.00  0.00
kslice_b1 =     -0.25  0.25  0.25
kslice_b2 =      0.25 -0.25  0.25

dos = true
dos_project = 1
!dos_energy_min = 8.
!dos_energy_max = 13.
dos_kmesh = 50
!dos_adpt_smr = false
!dos_smr_type = gauss
!dos_smr_fixed_en_width = 0.05

begin projections
Ti:d
O:p
end projections

begin kpoints
  0.00000000  0.00000000  0.00000000
  0.00000000  0.00000000  0.14285714
  0.00000000  0.00000000  0.28571429
  0.00000000  0.00000000  0.42857143
  0.00000000  0.00000000  0.57142857
  0.00000000  0.00000000  0.71428571
  0.00000000  0.00000000  0.85714286
  0.00000000  0.14285714  0.00000000
  0.00000000  0.14285714  0.14285714
  0.00000000  0.14285714  0.28571429
  0.00000000  0.14285714  0.42857143
  0.00000000  0.14285714  0.57142857
  0.00000000  0.14285714  0.71428571
  0.00000000  0.14285714  0.85714286
  0.00000000  0.28571429  0.00000000
  0.00000000  0.28571429  0.14285714
  0.00000000  0.28571429  0.28571429
  0.00000000  0.28571429  0.42857143
  0.00000000  0.28571429  0.57142857
  0.00000000  0.28571429  0.71428571
  0.00000000  0.28571429  0.85714286
  0.00000000  0.42857143  0.00000000
  0.00000000  0.42857143  0.14285714
  0.00000000  0.42857143  0.28571429
  0.00000000  0.42857143  0.42857143
  0.00000000  0.42857143  0.57142857
  0.00000000  0.42857143  0.71428571
  0.00000000  0.42857143  0.85714286
  0.00000000  0.57142857  0.00000000
  0.00000000  0.57142857  0.14285714
  0.00000000  0.57142857  0.28571429
  0.00000000  0.57142857  0.42857143
  0.00000000  0.57142857  0.57142857
  0.00000000  0.57142857  0.71428571
  0.00000000  0.57142857  0.85714286
  0.00000000  0.71428571  0.00000000
  0.00000000  0.71428571  0.14285714
  0.00000000  0.71428571  0.28571429
  0.00000000  0.71428571  0.42857143
  0.00000000  0.71428571  0.57142857
  0.00000000  0.71428571  0.71428571
  0.00000000  0.71428571  0.85714286
  0.00000000  0.85714286  0.00000000
  0.00000000  0.85714286  0.14285714
  0.00000000  0.85714286  0.28571429
  0.00000000  0.85714286  0.42857143
  0.00000000  0.85714286  0.57142857
  0.00000000  0.85714286  0.71428571
  0.00000000  0.85714286  0.85714286
  0.14285714  0.00000000  0.00000000
  0.14285714  0.00000000  0.14285714
  0.14285714  0.00000000  0.28571429
  0.14285714  0.00000000  0.42857143
  0.14285714  0.00000000  0.57142857
  0.14285714  0.00000000  0.71428571
  0.14285714  0.00000000  0.85714286
  0.14285714  0.14285714  0.00000000
  0.14285714  0.14285714  0.14285714
  0.14285714  0.14285714  0.28571429
  0.14285714  0.14285714  0.42857143
  0.14285714  0.14285714  0.57142857
  0.14285714  0.14285714  0.71428571
  0.14285714  0.14285714  0.85714286
  0.14285714  0.28571429  0.00000000
  0.14285714  0.28571429  0.14285714
  0.14285714  0.28571429  0.28571429
  0.14285714  0.28571429  0.42857143
  0.14285714  0.28571429  0.57142857
  0.14285714  0.28571429  0.71428571
  0.14285714  0.28571429  0.85714286
  0.14285714  0.42857143  0.00000000
  0.14285714  0.42857143  0.14285714
  0.14285714  0.42857143  0.28571429
  0.14285714  0.42857143  0.42857143
  0.14285714  0.42857143  0.57142857
  0.14285714  0.42857143  0.71428571
  0.14285714  0.42857143  0.85714286
  0.14285714  0.57142857  0.00000000
  0.14285714  0.57142857  0.14285714
  0.14285714  0.57142857  0.28571429
  0.14285714  0.57142857  0.42857143
  0.14285714  0.57142857  0.57142857
  0.14285714  0.57142857  0.71428571
  0.14285714  0.57142857  0.85714286
  0.14285714  0.71428571  0.00000000
  0.14285714  0.71428571  0.14285714
  0.14285714  0.71428571  0.28571429
  0.14285714  0.71428571  0.42857143
  0.14285714  0.71428571  0.57142857
  0.14285714  0.71428571  0.71428571
  0.14285714  0.71428571  0.85714286
  0.14285714  0.85714286  0.00000000
  0.14285714  0.85714286  0.14285714
  0.14285714  0.85714286  0.28571429
  0.14285714  0.85714286  0.42857143
  0.14285714  0.85714286  0.57142857
  0.14285714  0.85714286  0.71428571
  0.14285714  0.85714286  0.85714286
  0.28571429  0.00000000  0.00000000
  0.28571429  0.00000000  0.14285714
  0.28571429  0.00000000  0.28571429
  0.28571429  0.00000000  0.42857143
  0.28571429  0.00000000  0.57142857
  0.28571429  0.00000000  0.71428571
  0.28571429  0.00000000  0.85714286
  0.28571429  0.14285714  0.00000000
  0.28571429  0.14285714  0.14285714
  0.28571429  0.14285714  0.28571429
  0.28571429  0.14285714  0.42857143
  0.28571429  0.14285714  0.57142857
  0.28571429  0.14285714  0.71428571
  0.28571429  0.14285714  0.85714286
  0.28571429  0.28571429  0.00000000
  0.28571429  0.28571429  0.14285714
  0.28571429  0.28571429  0.28571429
  0.28571429  0.28571429  0.42857143
  0.28571429  0.28571429  0.57142857
  0.28571429  0.28571429  0.71428571
  0.28571429  0.28571429  0.85714286
  0.28571429  0.42857143  0.00000000
  0.28571429  0.42857143  0.14285714
  0.28571429  0.42857143  0.28571429
  0.28571429  0.42857143  0.42857143
  0.28571429  0.42857143  0.57142857
  0.28571429  0.42857143  0.71428571
  0.28571429  0.42857143  0.85714286
  0.28571429  0.57142857  0.00000000
  0.28571429  0.57142857  0.14285714
  0.28571429  0.57142857  0.28571429
  0.28571429  0.57142857  0.42857143
  0.28571429  0.57142857  0.57142857
  0.28571429  0.57142857  0.71428571
  0.28571429  0.57142857  0.85714286
  0.28571429  0.71428571  0.00000000
  0.28571429  0.71428571  0.14285714
  0.28571429  0.71428571  0.28571429
  0.28571429  0.71428571  0.42857143
  0.28571429  0.71428571  0.57142857
  0.28571429  0.71428571  0.71428571
  0.28571429  0.71428571  0.85714286
  0.28571429  0.85714286  0.00000000
  0.28571429  0.85714286  0.14285714
  0.28571429  0.85714286  0.28571429
  0.28571429  0.85714286  0.42857143
  0.28571429  0.85714286  0.57142857
  0.28571429  0.85714286  0.71428571
  0.28571429  0.85714286  0.85714286
  0.42857143  0.00000000  0.00000000
  0.42857143  0.00000000  0.14285714
  0.42857143  0.00000000  0.28571429
  0.42857143  0.00000000  0.42857143
  0.42857143  0.00000000  0.57142857
  0.42857143  0.00000000  0.71428571
  0.42857143  0.00000000  0.85714286
  0.42857143  0.14285714  0.00000000
  0.42857143  0.14285714  0.14285714
  0.42857143  0.14285714  0.28571429
  0.42857143  0.14285714  0.42857143
  0.42857143  0.14285714  0.57142857
  0.42857143  0.14285714  0.71428571
  0.42857143  0.14285714  0.85714286
  0.42857143  0.28571429  0.00000000
  0.42857143  0.28571429  0.14285714
  0.42857143  0.28571429  0.28571429
  0.42857143  0.28571429  0.42857143
  0.42857143  0.28571429  0.57142857
  0.42857143  0.28571429  0.71428571
  0.42857143  0.28571429  0.85714286
  0.42857143  0.42857143  0.00000000
  0.42857143  0.42857143  0.14285714
  0.42857143  0.42857143  0.28571429
  0.42857143  0.42857143  0.42857143
  0.42857143  0.42857143  0.57142857
  0.42857143  0.42857143  0.71428571
  0.42857143  0.42857143  0.85714286
  0.42857143  0.57142857  0.00000000
  0.42857143  0.57142857  0.14285714
  0.42857143  0.57142857  0.28571429
  0.42857143  0.57142857  0.42857143
  0.42857143  0.57142857  0.57142857
  0.42857143  0.57142857  0.71428571
  0.42857143  0.57142857  0.85714286
  0.42857143  0.71428571  0.00000000
  0.42857143  0.71428571  0.14285714
  0.42857143  0.71428571  0.28571429
  0.42857143  0.71428571  0.42857143
  0.42857143  0.71428571  0.57142857
  0.42857143  0.71428571  0.71428571
  0.42857143  0.71428571  0.85714286
  0.42857143  0.85714286  0.00000000
  0.42857143  0.85714286  0.14285714
  0.42857143  0.85714286  0.28571429
  0.42857143  0.85714286  0.42857143
  0.42857143  0.85714286  0.57142857
  0.42857143  0.85714286  0.71428571
  0.42857143  0.85714286  0.85714286
  0.57142857  0.00000000  0.00000000
  0.57142857  0.00000000  0.14285714
  0.57142857  0.00000000  0.28571429
  0.57142857  0.00000000  0.42857143
  0.57142857  0.00000000  0.57142857
  0.57142857  0.00000000  0.71428571
  0.57142857  0.00000000  0.85714286
  0.57142857  0.14285714  0.00000000
  0.57142857  0.14285714  0.14285714
  0.57142857  0.14285714  0.28571429
  0.57142857  0.14285714  0.42857143
  0.57142857  0.14285714  0.57142857
  0.57142857  0.14285714  0.71428571
  0.57142857  0.14285714  0.85714286
  0.57142857  0.28571429  0.00000000
  0.57142857  0.28571429  0.14285714
  0.57142857  0.28571429  0.28571429
  0.57142857  0.28571429  0.42857143
  0.57142857  0.28571429  0.57142857
  0.57142857  0.28571429  0.71428571
  0.57142857  0.28571429  0.85714286
  0.57142857  0.42857143  0.00000000
  0.57142857  0.42857143  0.14285714
  0.57142857  0.42857143  0.28571429
  0.57142857  0.42857143  0.42857143
  0.57142857  0.42857143  0.57142857
  0.57142857  0.42857143  0.71428571
  0.57142857  0.42857143  0.85714286
  0.57142857  0.57142857  0.00000000
  0.57142857  0.57142857  0.14285714
  0.57142857  0.57142857  0.28571429
  0.57142857  0.57142857  0.42857143
  0.57142857  0.57142857  0.57142857
  0.57142857  0.57142857  0.71428571
  0.57142857  0.57142857  0.85714286
  0.57142857  0.71428571  0.00000000
  0.57142857  0.71428571  0.14285714
  0.57142857  0.71428571  0.28571429
  0.57142857  0.71428571  0.42857143
  0.57142857  0.71428571  0.57142857
  0.57142857  0.71428571  0.71428571
  0.57142857  0.71428571  0.85714286
  0.57142857  0.85714286  0.00000000
  0.57142857  0.85714286  0.14285714
  0.57142857  0.85714286  0.28571429
  0.57142857  0.85714286  0.42857143
  0.57142857  0.85714286  0.57142857
  0.57142857  0.85714286  0.71428571
  0.57142857  0.85714286  0.85714286
  0.71428571  0.00000000  0.00000000
  0.71428571  0.00000000  0.14285714
  0.71428571  0.00000000  0.28571429
  0.71428571  0.00000000  0.42857143
  0.71428571  0.00000000  0.57142857
  0.71428571  0.00000000  0.71428571
  0.71428571  0.00000000  0.85714286
  0.71428571  0.14285714  0.00000000
  0.71428571  0.14285714  0.14285714
  0.71428571  0.14285714  0.28571429
  0.71428571  0.14285714  0.42857143
  0.71428571  0.14285714  0.57142857
  0.71428571  0.14285714  0.71428571
  0.71428571  0.14285714  0.85714286
  0.71428571  0.28571429  0.00000000
  0.71428571  0.28571429  0.14285714
  0.71428571  0.28571429  0.28571429
  0.71428571  0.28571429  0.42857143
  0.71428571  0.28571429  0.57142857
  0.71428571  0.28571429  0.71428571
  0.71428571  0.28571429  0.85714286
  0.71428571  0.42857143  0.00000000
  0.71428571  0.42857143  0.14285714
  0.71428571  0.42857143  0.28571429
  0.71428571  0.42857143  0.42857143
  0.71428571  0.42857143  0.57142857
  0.71428571  0.42857143  0.71428571
  0.71428571  0.42857143  0.85714286
  0.71428571  0.57142857  0.00000000
  0.71428571  0.57142857  0.14285714
  0.71428571  0.57142857  0.28571429
  0.71428571  0.57142857  0.42857143
  0.71428571  0.57142857  0.57142857
  0.71428571  0.57142857  0.71428571
  0.71428571  0.57142857  0.85714286
  0.71428571  0.71428571  0.00000000
  0.71428571  0.71428571  0.14285714
  0.71428571  0.71428571  0.28571429
  0.71428571  0.71428571  0.42857143
  0.71428571  0.71428571  0.57142857
  0.71428571  0.71428571  0.71428571
  0.71428571  0.71428571  0.85714286
  0.71428571  0.85714286  0.00000000
  0.71428571  0.85714286  0.14285714
  0.71428571  0.85714286  0.28571429
  0.71428571  0.85714286  0.42857143
  0.71428571  0.85714286  0.57142857
  0.71428571  0.85714286  0.71428571
  0.71428571  0.85714286  0.85714286
  0.85714286  0.00000000  0.00000000
  0.85714286  0.00000000  0.14285714
  0.85714286  0.00000000  0.28571429
  0.85714286  0.00000000  0.42857143
  0.85714286  0.00000000  0.57142857
  0.85714286  0.00000000  0.71428571
  0.85714286  0.00000000  0.85714286
  0.85714286  0.14285714  0.00000000
  0.85714286  0.14285714  0.14285714
  0.85714286  0.14285714  0.28571429
  0.85714286  0.14285714  0.42857143
  0.85714286  0.14285714  0.57142857
  0.85714286  0.14285714  0.71428571
  0.85714286  0.14285714  0.85714286
  0.85714286  0.28571429  0.00000000
  0.85714286  0.28571429  0.14285714
  0.85714286  0.28571429  0.28571429
  0.85714286  0.28571429  0.42857143
  0.85714286  0.28571429  0.57142857
  0.85714286  0.28571429  0.71428571
  0.85714286  0.28571429  0.85714286
  0.85714286  0.42857143  0.00000000
  0.85714286  0.42857143  0.14285714
  0.85714286  0.42857143  0.28571429
  0.85714286  0.42857143  0.42857143
  0.85714286  0.42857143  0.57142857
  0.85714286  0.42857143  0.71428571
  0.85714286  0.42857143  0.85714286
  0.85714286  0.57142857  0.00000000
  0.85714286  0.57142857  0.14285714
  0.85714286  0.57142857  0.28571429
  0.85714286  0.57142857  0.42857143
  0.85714286  0.57142857  0.57142857
  0.85714286  0.57142857  0.71428571
  0.85714286  0.57142857  0.85714286
  0.85714286  0.71428571  0.00000000
  0.85714286  0.71428571  0.14285714
  0.85714286  0.71428571  0.28571429
  0.85714286  0.71428571  0.42857143
  0.85714286  0.71428571  0.57142857
  0.85714286  0.71428571  0.71428571
  0.85714286  0.71428571  0.85714286
  0.85714286  0.85714286  0.00000000
  0.85714286  0.85714286  0.14285714
  0.85714286  0.85714286  0.28571429
  0.85714286  0.85714286  0.42857143
  0.85714286  0.85714286  0.57142857
  0.85714286  0.85714286  0.71428571
  0.85714286  0.85714286  0.85714286
end kpoints
